SECTION Graph 
Nodes 904
Edges 1806
E 1 2 1
E 1 789 7
E 1 799 3
E 1 805 1
E 2 801 3
E 2 808 1
E 2 817 8
E 3 4 1
E 3 817 6
E 3 822 3
E 3 827 1
E 4 825 3
E 4 830 1
E 5 6 1
E 5 328 20
E 6 7 14
E 6 330 20
E 7 8 1
E 7 343 20
E 8 331 8
E 8 335 8
E 8 345 20
E 9 10 1
E 9 741 7
E 9 758 2
E 9 799 20
E 10 11 14
E 10 760 2
E 10 801 20
E 11 12 1
E 11 784 2
E 11 822 20
E 12 785 2
E 12 825 20
E 13 14 1
E 13 54 34
E 13 371 45
E 14 15 14
E 15 16 1
E 17 235 7
E 17 823 8
E 17 824 8
E 18 239 2
E 18 803 39
E 19 20 1
E 19 723 16
E 19 735 7
E 19 762 3
E 20 21 14
E 20 726 16
E 20 765 3
E 21 22 1
E 21 750 16
E 21 786 3
E 22 755 16
E 22 789 3
E 22 799 7
E 23 24 1
E 23 696 7
E 23 705 1
E 23 712 1
E 24 25 14
E 24 709 1
E 24 713 1
E 25 26 1
E 25 730 1
E 25 736 1
E 26 733 1
E 26 737 1
E 27 28 1
E 27 753 7
E 27 766 2
E 27 772 1
E 28 29 14
E 28 769 2
E 28 776 1
E 29 30 1
E 29 790 2
E 29 796 1
E 30 793 2
E 30 800 1
E 30 810 7
E 31 32 1
E 31 707 7
E 31 716 3
E 31 731 8
E 32 33 14
E 32 720 3
E 32 734 8
E 33 34 1
E 33 740 3
E 33 770 8
E 34 745 3
E 34 771 7
E 34 773 8
E 35 36 1
E 35 664 7
E 35 669 6
E 35 708 16
E 36 37 14
E 36 672 6
E 36 711 16
E 37 38 1
E 37 695 6
E 37 732 16
E 38 697 6
E 38 723 7
E 38 735 16
E 39 40 1
E 39 601 9
E 39 614 7
E 39 652 14
E 40 41 14
E 40 609 9
E 40 658 14
E 41 42 1
E 41 634 9
E 41 686 14
E 42 639 9
E 42 689 14
E 43 44 1
E 43 465 33
E 43 531 7
E 43 601 20
E 44 45 14
E 44 470 33
E 44 609 20
E 45 46 1
E 45 507 33
E 45 634 20
E 46 511 33
E 46 639 20
E 47 48 1
E 47 377 22
E 47 412 7
E 47 465 24
E 48 49 14
E 48 382 22
E 48 470 24
E 49 50 1
E 49 413 22
E 49 507 24
E 50 415 22
E 50 511 24
E 51 52 1
E 51 367 7
E 51 370 4
E 51 377 1
E 52 53 14
E 52 371 4
E 52 382 1
E 53 54 1
E 53 413 1
E 54 415 1
E 55 56 1
E 55 690 30
E 55 742 2
E 56 57 14
E 56 746 2
E 57 58 1
E 57 759 12
E 58 761 12
E 59 60 1
E 59 662 22
E 59 680 15
E 59 715 5
E 60 61 14
E 60 682 15
E 60 719 5
E 61 62 1
E 61 704 15
E 61 739 5
E 62 707 15
E 62 744 5
E 62 749 7
E 63 64 1
E 63 372 24
E 63 499 33
E 64 65 14
E 64 376 24
E 64 501 33
E 65 66 1
E 65 409 24
E 65 528 33
E 66 412 24
E 66 465 7
E 66 531 33
E 67 68 1
E 67 336 1
E 67 372 22
E 68 69 14
E 68 339 1
E 68 376 22
E 69 70 1
E 69 365 1
E 69 409 22
E 70 367 1
E 70 377 7
E 70 412 22
E 71 72 1
E 71 336 24
E 72 73 14
E 72 339 24
E 73 74 1
E 73 365 24
E 74 367 24
E 74 370 27
E 75 76 1
E 75 510 9
E 76 77 14
E 76 514 9
E 77 78 1
E 77 549 9
E 78 541 7
E 78 557 9
E 79 80 1
E 79 266 53
E 79 281 1
E 80 81 14
E 80 282 1
E 81 82 1
E 81 289 1
E 82 290 1
E 83 84 1
E 83 256 53
E 83 281 20
E 84 85 14
E 84 282 20
E 85 86 1
E 85 289 20
E 86 290 20
E 87 88 1
E 87 490 1
E 88 89 14
E 88 495 1
E 89 90 1
E 89 521 1
E 90 524 1
E 90 540 7
E 91 92 1
E 91 617 12
E 91 630 7
E 92 93 14
E 92 620 12
E 93 94 1
E 93 644 12
E 94 647 12
E 95 96 1
E 95 566 12
E 95 575 7
E 95 617 9
E 96 97 14
E 96 567 12
E 96 620 9
E 97 98 1
E 97 599 12
E 97 644 9
E 98 603 12
E 98 647 9
E 99 100 1
E 99 512 12
E 99 519 7
E 99 544 2
E 100 101 14
E 100 515 12
E 100 551 2
E 101 102 1
E 101 552 12
E 101 580 2
E 102 558 12
E 102 585 2
E 102 684 45
E 103 104 1
E 103 456 15
E 103 467 7
E 103 502 5
E 104 105 14
E 104 458 15
E 104 504 5
E 105 106 1
E 105 489 15
E 105 534 5
E 106 494 15
E 106 536 5
E 106 604 30
E 107 108 1
E 107 297 42
E 107 306 7
E 108 109 14
E 108 298 42
E 109 110 1
E 109 301 42
E 110 302 42
E 111 112 1
E 111 271 26
E 111 280 7
E 111 287 6
E 112 113 14
E 112 272 26
E 112 288 6
E 113 114 1
E 113 277 26
E 113 293 6
E 114 278 26
E 114 294 6
E 115 116 1
E 115 257 24
E 115 262 22
E 115 270 8
E 115 271 24
E 116 117 14
E 116 259 24
E 116 272 24
E 117 118 1
E 117 265 24
E 117 277 24
E 118 266 24
E 118 278 24
E 119 120 1
E 119 247 30
E 119 250 20
E 119 257 1
E 120 121 14
E 120 251 20
E 120 259 1
E 121 122 1
E 121 255 20
E 121 265 1
E 122 256 20
E 122 266 1
E 122 281 53
E 123 124 1
E 123 243 30
E 123 250 5
E 124 125 14
E 124 251 5
E 125 126 1
E 125 255 5
E 126 256 5
E 127 128 1
E 127 522 32
E 127 598 3
E 128 129 14
E 128 602 3
E 129 130 1
E 129 632 3
E 130 635 3
E 131 132 1
E 131 135 21
E 131 380 7
E 131 405 5
E 132 133 14
E 132 136 21
E 132 408 5
E 133 134 1
E 133 137 21
E 133 427 5
E 134 138 21
E 134 431 5
E 134 438 7
E 135 136 1
E 135 344 7
E 135 353 2
E 136 137 14
E 136 356 2
E 137 138 1
E 137 375 2
E 138 381 2
E 138 400 7
E 139 140 1
E 139 300 7
E 139 303 3
E 140 141 14
E 140 304 3
E 141 142 1
E 141 305 3
E 142 306 3
E 143 144 1
E 143 261 23
E 143 269 7
E 143 273 26
E 144 145 14
E 144 264 23
E 144 274 26
E 145 146 1
E 145 268 23
E 145 279 26
E 146 270 23
E 146 271 7
E 146 280 26
E 147 148 1
E 147 481 7
E 147 491 4
E 147 525 12
E 148 149 14
E 148 496 4
E 148 529 12
E 149 150 1
E 149 523 4
E 149 570 12
E 150 526 4
E 150 562 7
E 150 573 12
E 151 152 1
E 151 435 7
E 151 446 4
E 151 475 12
E 152 153 14
E 152 447 4
E 152 478 12
E 153 154 1
E 153 474 4
E 153 516 12
E 154 476 4
E 154 505 7
E 154 517 12
E 155 156 1
E 155 399 7
E 155 406 3
E 155 428 12
E 156 157 14
E 156 411 3
E 156 433 12
E 157 158 1
E 157 429 3
E 157 460 12
E 158 434 3
E 158 457 7
E 158 461 12
E 159 160 1
E 159 163 21
E 159 295 45
E 160 161 14
E 160 164 21
E 160 296 45
E 161 162 1
E 161 165 21
E 161 299 45
E 162 166 21
E 162 285 7
E 162 300 45
E 163 164 1
E 163 260 32
E 164 165 14
E 164 263 32
E 165 166 1
E 165 267 32
E 166 269 32
E 166 275 7
E 167 168 1
E 167 248 1
E 167 260 23
E 168 169 14
E 168 249 1
E 168 263 23
E 169 170 1
E 169 253 1
E 169 267 23
E 170 254 1
E 170 261 7
E 170 269 23
E 171 172 1
E 171 244 1
E 171 248 24
E 172 173 14
E 172 245 1
E 172 249 24
E 173 174 1
E 173 246 1
E 173 253 24
E 174 247 1
E 174 252 22
E 174 254 24
E 175 176 1
E 175 240 1
E 176 177 14
E 176 241 1
E 177 178 1
E 177 242 1
E 178 243 1
E 179 180 1
E 179 417 30
E 179 448 17
E 180 181 14
E 180 451 17
E 181 182 1
E 181 477 17
E 181 520 1
E 182 481 17
E 182 522 1
E 182 537 7
E 183 184 1
E 183 383 30
E 183 410 17
E 183 443 1
E 184 185 14
E 184 414 17
E 184 445 1
E 185 186 1
E 185 432 17
E 185 471 1
E 186 435 17
E 186 473 1
E 186 491 7
E 187 188 1
E 187 368 17
E 187 386 7
E 187 402 1
E 188 189 14
E 188 369 17
E 188 403 1
E 189 190 1
E 189 396 17
E 189 424 1
E 190 399 17
E 190 425 1
E 190 446 7
E 191 192 1
E 191 332 23
E 191 349 7
E 191 363 1
E 192 193 14
E 192 334 23
E 192 366 1
E 193 194 1
E 193 373 5
E 193 389 1
E 194 379 5
E 194 392 1
E 194 404 7
E 195 196 1
E 195 199 25
E 195 307 2
E 196 197 14
E 196 200 25
E 196 308 2
E 197 198 1
E 197 201 25
E 197 309 2
E 198 202 25
E 198 310 2
E 199 200 1
E 199 203 21
E 200 201 14
E 200 204 21
E 201 202 1
E 201 205 21
E 202 206 21
E 203 204 1
E 203 207 21
E 204 205 14
E 204 208 21
E 205 206 1
E 205 209 21
E 206 210 21
E 207 208 1
E 208 209 14
E 209 210 1
E 210 295 39
E 211 212 1
E 211 215 28
E 211 331 23
E 212 213 14
E 212 216 28
E 212 333 23
E 213 214 1
E 213 317 5
E 213 346 23
E 214 319 5
E 214 332 7
E 214 349 23
E 215 216 1
E 215 219 74
E 216 217 14
E 216 220 74
E 217 218 1
E 217 221 74
E 217 311 2
E 218 222 74
E 218 312 2
E 218 313 7
E 219 220 1
E 220 221 14
E 221 222 1
E 222 307 7
E 223 224 1
E 223 391 1
E 224 225 14
E 224 393 1
E 225 226 1
E 225 416 1
E 226 417 1
E 226 520 45
E 227 228 1
E 227 354 1
E 227 391 20
E 228 229 14
E 228 357 1
E 228 393 20
E 229 230 1
E 229 378 1
E 229 416 20
E 230 383 1
E 230 417 20
E 230 443 30
E 231 232 1
E 231 328 1
E 231 354 20
E 232 233 14
E 232 330 1
E 232 357 20
E 233 234 1
E 233 343 1
E 233 378 20
E 234 345 1
E 234 359 7
E 234 383 20
E 235 236 5
E 235 836 8
E 236 237 1
E 236 840 8
E 237 238 2
E 237 841 8
E 238 239 1
E 238 844 8
E 239 845 8
E 240 241 1
E 240 244 25
E 241 242 14
E 241 245 25
E 242 243 1
E 242 246 25
E 243 247 25
E 244 245 1
E 245 246 14
E 246 247 1
E 248 249 1
E 249 253 14
E 250 251 1
E 251 255 14
E 252 257 8
E 252 268 25
E 253 254 1
E 254 258 7
E 255 256 1
E 257 259 1
E 258 261 1
E 258 262 1
E 259 265 14
E 260 263 1
E 261 264 1
E 262 264 1
E 263 267 14
E 264 268 14
E 265 266 1
E 267 269 1
E 268 270 1
E 271 272 1
E 272 277 14
E 273 274 1
E 273 275 6
E 274 276 6
E 274 279 14
E 275 276 1
E 275 285 21
E 276 283 14
E 276 286 21
E 277 278 1
E 279 280 1
E 279 283 6
E 280 284 6
E 281 282 1
E 282 289 14
E 283 284 1
E 283 291 21
E 284 287 7
E 284 292 21
E 285 286 1
E 285 303 42
E 286 291 14
E 286 304 42
E 287 288 1
E 287 297 21
E 288 293 14
E 288 298 21
E 289 290 1
E 291 292 1
E 291 305 42
E 292 297 7
E 292 306 42
E 293 294 1
E 293 301 21
E 294 302 21
E 295 296 1
E 296 299 14
E 297 298 1
E 298 301 14
E 299 300 1
E 301 302 1
E 303 304 1
E 304 305 14
E 305 306 1
E 307 308 1
E 307 313 74
E 308 309 14
E 308 314 74
E 309 310 1
E 309 318 74
E 310 320 74
E 311 312 1
E 311 317 21
E 312 315 7
E 312 319 21
E 313 314 1
E 313 315 2
E 314 316 2
E 314 318 14
E 315 316 1
E 315 323 21
E 316 321 14
E 316 325 21
E 317 319 1
E 318 320 1
E 318 321 2
E 319 323 7
E 320 322 2
E 320 324 7
E 321 322 1
E 321 337 21
E 322 327 7
E 322 340 21
E 323 325 1
E 323 332 5
E 324 326 1
E 324 327 2
E 325 334 5
E 325 337 14
E 326 329 2
E 326 338 14
E 327 329 1
E 327 352 21
E 328 330 1
E 329 342 14
E 329 355 21
E 330 343 14
E 331 333 1
E 331 358 21
E 332 334 1
E 333 335 1
E 333 346 14
E 334 347 14
E 335 348 14
E 335 360 20
E 336 339 1
E 337 340 1
E 337 347 5
E 338 341 1
E 338 342 2
E 339 365 14
E 340 350 5
E 340 352 7
E 341 344 2
E 341 353 7
E 342 344 1
E 342 374 21
E 343 345 1
E 344 380 21
E 345 358 7
E 346 348 1
E 346 349 1
E 347 350 1
E 347 373 18
E 348 351 1
E 348 384 20
E 349 351 1
E 350 362 7
E 350 379 18
E 351 363 7
E 351 386 20
E 352 355 1
E 352 362 5
E 353 356 1
E 354 357 1
E 355 364 5
E 355 374 14
E 356 375 14
E 357 378 14
E 358 359 1
E 358 360 1
E 359 361 1
E 360 361 1
E 360 384 14
E 361 385 14
E 362 364 1
E 362 394 18
E 363 366 1
E 363 368 3
E 364 388 14
E 364 397 18
E 365 367 1
E 366 369 3
E 366 389 14
E 368 369 1
E 369 396 14
E 370 371 1
E 372 376 1
E 373 379 1
E 374 380 1
E 374 388 5
E 375 381 1
E 376 409 14
E 377 382 1
E 378 383 1
E 379 394 7
E 380 390 5
E 381 395 7
E 382 413 14
E 384 385 1
E 384 386 1
E 385 387 1
E 386 387 1
E 387 402 7
E 388 390 1
E 388 418 18
E 389 392 1
E 389 396 3
E 390 405 7
E 390 420 18
E 391 393 1
E 392 399 3
E 392 406 7
E 393 416 14
E 394 397 1
E 394 404 5
E 395 398 1
E 395 400 2
E 396 399 1
E 397 407 5
E 397 418 14
E 398 401 2
E 398 419 14
E 400 401 1
E 400 438 21
E 401 422 14
E 401 442 21
E 402 403 1
E 402 410 3
E 403 414 3
E 403 424 14
E 404 406 1
E 404 407 1
E 405 408 1
E 405 437 18
E 406 411 1
E 407 411 1
E 407 426 14
E 408 427 14
E 408 440 18
E 409 412 1
E 410 414 1
E 411 429 14
E 413 415 1
E 414 432 14
E 416 417 1
E 418 420 1
E 418 426 5
E 419 421 1
E 419 422 2
E 420 430 5
E 420 437 7
E 421 423 2
E 421 490 30
E 422 423 1
E 422 464 21
E 423 469 21
E 423 498 30
E 424 425 1
E 424 432 3
E 425 435 3
E 426 429 1
E 426 430 1
E 427 431 1
E 427 463 18
E 428 433 1
E 428 436 2
E 429 434 1
E 430 434 1
E 430 449 7
E 431 450 7
E 431 467 18
E 432 435 1
E 433 439 2
E 433 460 14
E 434 452 7
E 436 439 1
E 436 446 3
E 437 440 1
E 437 449 5
E 438 441 1
E 438 442 1
E 439 447 3
E 439 462 14
E 440 453 5
E 440 463 14
E 441 444 1
E 441 450 4
E 442 444 1
E 442 464 14
E 443 445 1
E 443 448 3
E 444 454 4
E 444 468 14
E 445 451 3
E 445 471 14
E 446 447 1
E 447 474 14
E 448 451 1
E 449 452 1
E 449 453 1
E 450 454 1
E 450 456 3
E 451 477 14
E 452 455 1
E 452 457 3
E 453 455 1
E 453 479 14
E 454 458 3
E 454 480 14
E 455 459 3
E 455 483 14
E 456 458 1
E 457 459 1
E 457 482 12
E 458 489 14
E 459 486 12
E 459 493 14
E 460 461 1
E 460 462 2
E 461 466 2
E 461 482 7
E 462 466 1
E 462 474 3
E 463 467 1
E 463 479 5
E 464 468 1
E 464 469 1
E 465 470 1
E 466 476 3
E 466 488 7
E 467 484 5
E 468 472 1
E 468 480 4
E 469 472 1
E 469 545 30
E 470 507 14
E 471 473 1
E 471 477 3
E 472 485 4
E 472 553 30
E 473 481 3
E 474 476 1
E 475 478 1
E 475 491 5
E 477 481 1
E 478 496 5
E 478 516 14
E 479 483 1
E 479 484 1
E 480 485 1
E 480 489 3
E 482 486 1
E 482 488 2
E 483 487 1
E 483 493 3
E 484 487 1
E 484 502 7
E 485 494 3
E 485 563 30
E 486 492 2
E 486 518 14
E 487 497 3
E 487 503 7
E 488 492 1
E 488 505 7
E 489 494 1
E 490 495 1
E 490 498 2
E 491 496 1
E 492 508 7
E 492 544 22
E 493 497 1
E 493 518 12
E 494 568 30
E 495 500 2
E 495 521 14
E 496 523 14
E 497 512 7
E 497 519 12
E 498 500 1
E 498 509 6
E 499 501 1
E 499 541 20
E 500 513 6
E 500 527 14
E 501 528 14
E 501 550 20
E 502 503 1
E 502 504 1
E 503 506 1
E 503 512 3
E 504 506 1
E 504 534 14
E 505 508 1
E 505 532 12
E 506 515 3
E 506 535 14
E 507 511 1
E 508 533 12
E 508 538 14
E 509 513 1
E 509 545 15
E 510 514 1
E 510 540 14
E 512 515 1
E 513 546 14
E 513 554 15
E 514 548 14
E 514 549 14
E 515 552 14
E 516 517 1
E 516 523 5
E 517 526 5
E 517 532 7
E 518 519 1
E 518 538 9
E 519 543 9
E 520 522 1
E 521 524 1
E 521 527 2
E 523 526 1
E 524 530 2
E 524 547 7
E 525 529 1
E 525 537 5
E 527 530 1
E 527 546 6
E 528 531 1
E 528 578 20
E 529 542 5
E 529 570 14
E 530 555 6
E 530 560 7
E 531 584 20
E 532 533 1
E 532 562 9
E 533 564 9
E 533 574 14
E 534 535 1
E 534 536 1
E 535 539 1
E 535 552 3
E 536 539 1
E 536 618 30
E 537 542 1
E 538 543 1
E 538 574 12
E 539 558 3
E 539 621 30
E 540 547 1
E 540 548 1
E 541 550 1
E 541 569 9
E 542 576 14
E 543 566 7
E 543 575 12
E 544 551 1
E 544 566 7
E 545 553 1
E 545 554 1
E 546 555 1
E 546 581 15
E 547 556 1
E 547 560 2
E 548 556 1
E 548 577 14
E 549 557 1
E 549 577 14
E 550 572 9
E 550 578 14
E 551 567 7
E 551 580 14
E 552 558 1
E 553 559 1
E 553 563 4
E 554 559 1
E 554 581 14
E 555 587 15
E 555 625 30
E 556 561 2
E 556 582 14
E 557 569 7
E 557 583 14
E 558 627 30
E 559 565 4
E 559 586 14
E 560 561 1
E 560 619 26
E 561 591 14
E 561 623 26
E 562 564 1
E 562 589 12
E 563 565 1
E 563 568 3
E 564 592 12
E 564 594 14
E 565 571 3
E 565 595 14
E 566 567 1
E 567 599 14
E 568 571 1
E 568 604 15
E 569 572 1
E 569 600 14
E 570 573 1
E 570 576 5
E 571 605 14
E 571 610 15
E 572 607 14
E 572 608 14
E 573 579 5
E 573 589 7
E 574 575 1
E 574 594 9
E 575 596 9
E 576 579 1
E 577 582 1
E 577 583 1
E 578 584 1
E 578 608 9
E 579 598 7
E 580 585 1
E 580 599 7
E 581 586 1
E 581 587 1
E 582 588 1
E 582 591 2
E 583 588 1
E 583 600 7
E 584 601 7
E 584 614 9
E 585 603 7
E 585 653 30
E 586 590 1
E 586 595 4
E 587 590 1
E 588 593 2
E 588 606 7
E 589 592 1
E 589 598 5
E 590 597 4
E 590 663 30
E 591 593 1
E 591 646 26
E 592 602 5
E 592 626 14
E 593 615 7
E 593 650 26
E 594 596 1
E 594 626 12
E 595 597 1
E 595 605 3
E 596 617 7
E 596 630 12
E 597 611 3
E 597 619 7
E 598 602 1
E 599 603 1
E 600 606 1
E 600 607 1
E 601 609 1
E 602 632 14
E 604 610 1
E 604 618 5
E 605 611 1
E 605 636 15
E 606 612 1
E 606 613 1
E 607 613 1
E 607 633 14
E 608 614 1
E 608 633 14
E 609 634 14
E 610 622 5
E 610 636 14
E 611 640 15
E 611 680 30
E 612 615 1
E 612 665 23
E 613 616 2
E 613 637 14
E 614 638 14
E 615 616 1
E 615 625 6
E 616 629 6
E 616 642 14
E 617 620 1
E 618 621 1
E 618 622 1
E 619 623 1
E 619 655 18
E 620 644 14
E 621 624 1
E 621 627 3
E 622 624 1
E 622 645 14
E 623 646 14
E 623 662 18
E 624 628 2
E 624 648 14
E 625 629 1
E 625 663 16
E 626 630 1
E 626 632 5
E 627 631 1
E 627 653 14
E 628 631 1
E 628 654 14
E 629 656 14
E 629 668 16
E 630 635 5
E 631 659 14
E 631 660 14
E 632 635 1
E 633 637 1
E 633 638 1
E 634 639 1
E 636 640 1
E 636 645 5
E 637 641 1
E 637 642 2
E 638 641 1
E 638 652 7
E 640 649 5
E 640 655 7
E 641 643 2
E 641 657 7
E 642 643 1
E 642 656 6
E 643 664 6
E 643 669 7
E 644 647 1
E 645 648 1
E 645 649 1
E 646 650 1
E 646 698 23
E 648 651 1
E 648 654 2
E 649 651 1
E 649 674 7
E 650 675 7
E 650 701 23
E 651 661 2
E 651 676 7
E 652 657 1
E 652 658 1
E 653 659 1
E 654 660 1
E 654 661 1
E 655 662 1
E 655 674 5
E 656 664 1
E 656 691 16
E 657 665 1
E 657 666 1
E 658 666 1
E 658 686 14
E 659 687 14
E 660 667 1
E 660 671 2
E 661 667 1
E 661 722 30
E 662 677 5
E 663 668 1
E 663 675 4
E 664 694 16
E 665 669 1
E 665 670 1
E 666 670 1
E 666 688 14
E 667 673 2
E 667 681 7
E 668 678 4
E 668 691 14
E 669 672 1
E 670 672 1
E 670 692 14
E 671 673 1
E 671 684 10
E 672 695 14
E 673 685 10
E 673 728 30
E 674 676 1
E 674 677 1
E 675 678 1
E 675 680 3
E 676 679 1
E 676 681 3
E 677 679 1
E 677 698 14
E 678 682 3
E 678 699 14
E 679 683 3
E 679 700 14
E 680 682 1
E 681 683 1
E 682 704 14
E 683 706 14
E 684 685 1
E 684 687 2
E 685 690 2
E 685 742 30
E 686 688 1
E 686 689 1
E 687 690 1
E 688 692 1
E 688 693 1
E 689 693 1
E 691 694 1
E 691 699 4
E 692 695 1
E 692 696 1
E 693 696 1
E 693 705 7
E 694 702 4
E 694 708 7
E 695 697 1
E 696 697 1
E 697 712 7
E 698 700 1
E 698 701 1
E 699 702 1
E 699 704 3
E 700 703 1
E 700 706 3
E 701 703 1
E 701 715 7
E 702 707 3
E 702 716 7
E 703 710 3
E 703 718 7
E 704 707 1
E 705 709 1
E 706 710 1
E 708 711 1
E 708 716 4
E 709 730 14
E 710 724 7
E 711 720 4
E 711 732 14
E 712 713 1
E 712 714 2
E 713 717 2
E 713 736 14
E 714 717 1
E 714 723 4
E 715 718 1
E 715 719 1
E 716 720 1
E 717 726 4
E 717 738 14
E 718 721 1
E 718 722 2
E 719 721 1
E 719 739 14
E 720 740 14
E 721 725 2
E 721 743 14
E 722 724 1
E 722 725 1
E 723 726 1
E 724 727 1
E 724 728 2
E 725 727 1
E 725 748 14
E 726 750 14
E 727 729 2
E 727 752 14
E 728 729 1
E 728 742 10
E 729 746 10
E 729 759 14
E 730 733 1
E 731 734 1
E 731 749 7
E 732 735 1
E 732 740 4
E 733 751 7
E 734 754 7
E 734 770 14
E 735 745 4
E 736 737 1
E 736 738 2
E 737 741 2
E 737 758 7
E 738 741 1
E 738 750 4
E 739 743 1
E 739 744 1
E 740 745 1
E 741 755 4
E 742 746 1
E 743 747 1
E 743 748 2
E 744 747 1
E 744 763 7
E 745 764 7
E 747 753 2
E 747 766 7
E 748 752 1
E 748 753 1
E 749 754 1
E 749 763 5
E 750 755 1
E 751 756 1
E 751 758 2
E 752 757 1
E 752 759 2
E 753 757 1
E 754 767 5
E 754 778 14
E 756 760 2
E 756 775 8
E 757 761 2
E 757 772 7
E 758 760 1
E 759 761 1
E 760 777 8
E 761 802 22
E 762 764 1
E 762 765 1
E 763 766 1
E 763 767 1
E 764 768 1
E 764 771 3
E 765 768 1
E 765 786 14
E 766 769 1
E 767 769 1
E 767 787 14
E 768 774 3
E 768 788 14
E 769 790 14
E 770 773 1
E 770 778 7
E 771 774 1
E 771 781 8
E 772 776 1
E 773 780 7
E 773 781 7
E 774 783 8
E 774 795 14
E 775 779 6
E 776 796 14
E 777 784 6
E 778 780 1
E 778 787 5
E 779 782 1
E 779 784 2
E 780 791 5
E 780 794 7
E 781 783 1
E 781 794 7
E 782 785 2
E 783 797 7
E 783 811 14
E 784 785 1
E 786 788 1
E 786 789 1
E 787 790 1
E 787 791 1
E 788 792 1
E 788 795 3
E 789 792 1
E 790 793 1
E 791 793 1
E 791 804 7
E 792 798 3
E 792 805 7
E 793 806 7
E 794 797 1
E 794 804 5
E 795 798 1
E 795 811 8
E 796 800 1
E 796 802 2
E 797 807 5
E 797 819 14
E 798 814 8
E 798 824 16
E 799 801 1
E 800 803 2
E 800 812 7
E 801 816 8
E 802 803 1
E 804 806 1
E 804 807 1
E 805 808 1
E 805 821 11
E 806 809 1
E 806 810 2
E 807 809 1
E 807 826 14
E 808 818 8
E 808 823 11
E 809 813 2
E 809 828 14
E 810 812 1
E 810 813 1
E 811 814 1
E 811 819 7
E 812 815 1
E 813 815 1
E 813 832 14
E 814 820 7
E 814 821 7
E 815 834 14
E 816 817 3
E 816 822 6
E 817 818 1
E 818 824 3
E 818 827 6
E 819 820 1
E 819 826 5
E 820 829 5
E 820 833 7
E 821 823 1
E 821 833 7
E 822 825 1
E 823 836 7
E 826 828 1
E 826 829 1
E 827 830 1
E 828 831 1
E 828 832 2
E 829 831 1
E 829 838 7
E 831 835 2
E 831 839 7
E 832 834 1
E 832 835 1
E 833 836 1
E 833 838 5
E 834 837 1
E 835 837 1
E 835 842 7
E 836 840 5
E 837 843 7
E 838 839 1
E 838 840 1
E 839 841 1
E 839 842 2
E 840 841 1
E 841 844 2
E 842 843 1
E 842 844 1
E 843 845 1
E 844 845 1
E 1 846 100000
E 2 846 100000
E 3 846 100000
E 4 846 100000
E 5 847 100000
E 6 847 100000
E 7 847 100000
E 8 847 100000
E 9 848 100000
E 10 848 100000
E 11 848 100000
E 12 848 100000
E 13 849 100000
E 14 849 100000
E 15 849 100000
E 16 849 100000
E 17 850 100000
E 18 850 100000
E 19 851 100000
E 20 851 100000
E 21 851 100000
E 22 851 100000
E 23 852 100000
E 24 852 100000
E 25 852 100000
E 26 852 100000
E 27 853 100000
E 28 853 100000
E 29 853 100000
E 30 853 100000
E 31 854 100000
E 32 854 100000
E 33 854 100000
E 34 854 100000
E 35 855 100000
E 36 855 100000
E 37 855 100000
E 38 855 100000
E 39 856 100000
E 40 856 100000
E 41 856 100000
E 42 856 100000
E 43 857 100000
E 44 857 100000
E 45 857 100000
E 46 857 100000
E 47 858 100000
E 48 858 100000
E 49 858 100000
E 50 858 100000
E 51 859 100000
E 52 859 100000
E 53 859 100000
E 54 859 100000
E 55 860 100000
E 56 860 100000
E 57 860 100000
E 58 860 100000
E 59 861 100000
E 60 861 100000
E 61 861 100000
E 62 861 100000
E 63 862 100000
E 64 862 100000
E 65 862 100000
E 66 862 100000
E 67 863 100000
E 68 863 100000
E 69 863 100000
E 70 863 100000
E 71 864 100000
E 72 864 100000
E 73 864 100000
E 74 864 100000
E 75 865 100000
E 76 865 100000
E 77 865 100000
E 78 865 100000
E 79 866 100000
E 80 866 100000
E 81 866 100000
E 82 866 100000
E 83 867 100000
E 84 867 100000
E 85 867 100000
E 86 867 100000
E 87 868 100000
E 88 868 100000
E 89 868 100000
E 90 868 100000
E 91 869 100000
E 92 869 100000
E 93 869 100000
E 94 869 100000
E 95 870 100000
E 96 870 100000
E 97 870 100000
E 98 870 100000
E 99 871 100000
E 100 871 100000
E 101 871 100000
E 102 871 100000
E 103 872 100000
E 104 872 100000
E 105 872 100000
E 106 872 100000
E 107 873 100000
E 108 873 100000
E 109 873 100000
E 110 873 100000
E 111 874 100000
E 112 874 100000
E 113 874 100000
E 114 874 100000
E 115 875 100000
E 116 875 100000
E 117 875 100000
E 118 875 100000
E 119 876 100000
E 120 876 100000
E 121 876 100000
E 122 876 100000
E 123 877 100000
E 124 877 100000
E 125 877 100000
E 126 877 100000
E 127 878 100000
E 128 878 100000
E 129 878 100000
E 130 878 100000
E 131 879 100000
E 132 879 100000
E 133 879 100000
E 134 879 100000
E 135 880 100000
E 136 880 100000
E 137 880 100000
E 138 880 100000
E 139 881 100000
E 140 881 100000
E 141 881 100000
E 142 881 100000
E 143 882 100000
E 144 882 100000
E 145 882 100000
E 146 882 100000
E 147 883 100000
E 148 883 100000
E 149 883 100000
E 150 883 100000
E 151 884 100000
E 152 884 100000
E 153 884 100000
E 154 884 100000
E 155 885 100000
E 156 885 100000
E 157 885 100000
E 158 885 100000
E 159 886 100000
E 160 886 100000
E 161 886 100000
E 162 886 100000
E 163 887 100000
E 164 887 100000
E 165 887 100000
E 166 887 100000
E 167 888 100000
E 168 888 100000
E 169 888 100000
E 170 888 100000
E 171 889 100000
E 172 889 100000
E 173 889 100000
E 174 889 100000
E 175 890 100000
E 176 890 100000
E 177 890 100000
E 178 890 100000
E 179 891 100000
E 180 891 100000
E 181 891 100000
E 182 891 100000
E 183 892 100000
E 184 892 100000
E 185 892 100000
E 186 892 100000
E 187 893 100000
E 188 893 100000
E 189 893 100000
E 190 893 100000
E 191 894 100000
E 192 894 100000
E 193 894 100000
E 194 894 100000
E 195 895 100000
E 196 895 100000
E 197 895 100000
E 198 895 100000
E 199 896 100000
E 200 896 100000
E 201 896 100000
E 202 896 100000
E 203 897 100000
E 204 897 100000
E 205 897 100000
E 206 897 100000
E 207 898 100000
E 208 898 100000
E 209 898 100000
E 210 898 100000
E 211 899 100000
E 212 899 100000
E 213 899 100000
E 214 899 100000
E 215 900 100000
E 216 900 100000
E 217 900 100000
E 218 900 100000
E 219 901 100000
E 220 901 100000
E 221 901 100000
E 222 901 100000
E 223 902 100000
E 224 902 100000
E 225 902 100000
E 226 902 100000
E 227 903 100000
E 228 903 100000
E 229 903 100000
E 230 903 100000
E 231 904 100000
E 232 904 100000
E 233 904 100000
E 234 904 100000
E 235 850 100000
E 236 850 100000
E 237 850 100000
E 238 850 100000
E 239 850 100000
END 

SECTION Terminals 
Terminals 60
TP 846 876
TP 847 877
TP 848 878
TP 849 879
TP 850 880
TP 851 881
TP 852 882
TP 853 883
TP 854 884
TP 855 885
TP 856 886
TP 857 887
TP 858 888
TP 859 889
TP 860 890
TP 861 891
TP 862 892
TP 863 893
TP 864 894
TP 865 895
TP 866 896
TP 867 897
TP 868 898
TP 869 899
TP 870 900
TP 871 901
TP 872 902
TP 873 903
TP 874 904
TP 875 25
END 
